Comps = {frontend0, frontend1, backend0, backend1, database0, database1};
mustComps = {frontend0, frontend1};
Flavs = {tiny, medium, large};
Nodes = {n1, n2, n3};
CRes = {CPU, RAM, storage, bwIn, bwOut};
NRes = {ssl, fwall, encr, avail, latency};
Flav = [{medium, large}, {medium, large}, {tiny, medium, large}, {tiny, medium, large}, {large}, {large}];
Uses = array2d(CompFlavs, CompFlavs, [
	0,0,0,0,1,0,0,0,0,0,0,0,
	0,0,0,0,1,0,0,0,0,0,0,0,
	0,0,0,0,0,0,0,1,0,0,0,0,
	0,0,0,0,0,0,0,1,0,0,0,0,
	0,0,0,0,0,0,0,0,0,0,0,0,
	0,0,0,0,0,0,1,0,0,0,0,0,
	0,0,0,0,0,0,1,0,0,0,0,0,
	0,0,0,0,0,0,0,0,0,0,0,0,
	0,0,0,0,0,0,0,0,0,1,0,0,
	0,0,0,0,0,0,0,0,0,1,0,0,
	0,0,0,0,0,0,0,0,0,0,0,0,
	0,0,0,0,0,0,0,0,0,0,0,0,
]);
mayUse = array2d(Comps, CompFlavs, [
	0,0,0,0,0,0,0,0,0,0,0,0,
	0,0,0,0,0,0,0,0,0,0,0,0,
	1,1,0,0,0,1,1,0,0,0,0,0,
	0,0,1,1,0,0,0,0,1,1,0,0,
	0,0,0,0,0,0,0,0,0,0,0,0,
	0,0,0,0,0,0,0,0,0,0,0,0,
]);
MIN_RBOUNDS = 0;
MAX_RBOUNDS = 1000000;

worstBounds = [0, 0, 0, 0, 0, 0, 0, 0, 0, MAX_RBOUNDS];
bestBounds = [MAX_RBOUNDS - i | i in worstBounds];

comReq = array2d(CompFlavs, Res, [
  2, 409, 418, 580, 533, 0, 1, 0, 97, MAX_RBOUNDS,
  4, 314, 321, 905, 767, 1, 0, 1, 95, MAX_RBOUNDS,
  2, 299, 349, 312, 862, 1, 0, 0, 97, MAX_RBOUNDS,
  4, 386, 239, 256, 399, 0, 1, 0, 95, MAX_RBOUNDS,
  2, 425, 412, 993, 721, 0, 1, 1, 97, MAX_RBOUNDS,
  2, 377, 310, 568, 535, 1, 0, 1, 96, MAX_RBOUNDS,
  8, 456, 367, 959, 878, 0, 1, 0, 95, MAX_RBOUNDS,
  2, 420, 289, 955, 897, 1, 1, 1, 97, MAX_RBOUNDS,
  2, 366, 373, 895, 448, 0, 1, 1, 95, MAX_RBOUNDS,
  4, 374, 487, 666, 435, 1, 1, 0, 97, MAX_RBOUNDS,
  2, 317, 398, 913, 277, 1, 1, 1, 96, MAX_RBOUNDS,
  2, 455, 224, 292, 985, 0, 1, 0, 96, MAX_RBOUNDS,
]);

nodeCap = array2d(Nodes0, Res, [bestBounds[r] | r in Res] ++ [
  16, 127814, 34497, 20551, 11757, 1, 1, 0, 98, 0,
  32, 62717, 71425, 18325, 19547, 0, 1, 1, 98, 0,
  32, 106823, 591840, 13446, 18152, 1, 1, 0, 99, 0,
]);

cost = array2d(Nodes0, Res, [
  0, 0, 0, 0, 0, 0, 0, 0, 0, 0, % no node
  16, 9, 20, 0, 0, 0, 0, 0, 0, 0,
  17, 9, 24, 0, 0, 0, 0, 0, 0, 0,
  15, 10, 21, 0, 0, 0, 0, 0, 0, 0,
]);

carb = array2d(Nodes0, Res, [
  0, 0, 0, 0, 0, 0, 0, 0, 0, 0, % no node
  2, 3, 27, 0, 0, 0, 0, 0, 0, 0,
  9, 48, 40, 0, 0, 0, 0, 0, 0, 0,
  14, 33, 13, 0, 0, 0, 0, 0, 0, 0,
]);

costBudget = 55534;
carbBudget = 43206;

depReq = array4d(Comps, Flavs, Comps, Res, [
  if c1 = frontend0 /\ c2 = backend1 /\ r = N(avail) then
    95
  elseif c1 = frontend1 /\ c2 = backend1 /\ r = N(avail) then
    97
  elseif c1 = frontend1 /\ c2 = backend0 /\ r = N(avail) then
    95
  elseif c1 = frontend0 /\ c2 = backend0 /\ r = N(avail) then
    96
  else
    worstBounds[r]
  endif | c1 in Comps, i in Flavs, c2 in Comps, r in Res]);

linkCap = array3d(Nodes0, Nodes0, Res, [
  if ni = 0 \/ nj = 0 then
    bestBounds[r]
  elseif ni = nj /\ r = N(avail) then
    nodeCap[ni,r]
  elseif {ni, nj} = {n1, n3} /\ r = N(avail) then
    99
  elseif {ni, nj} = {n1, n2} /\ r = N(avail) then
    99
  elseif {ni, nj} = {n2, n3} /\ r = N(avail) then
    99
  else
    worstBounds[r]
  endif | ni in Nodes0, nj in Nodes0, r in Res]);

imp = array2d(Comps, Flavs, [
  4, 7, 9,
  4, 5, 7,
  2, 4, 8,
  3, 5, 6,
  2, 3, 5,
  2, 7, 8,
]);

